24575,
24575,
23576,
22637,
22157,
21502,
20303,
20303,
19780,
17974,
17955,
17837,
17526,
17058,
16381,
15644,
15442,
15183,
15130,
14820,
14705,
14643,
14387,
14296,
14121,
14121,
14121,
14121,
14121,
14121,
14121,
14121,
14105,
14105,
14105,
14105,
14105,
14038,
14038,
14038,
14038,
14038,
14034,
14034,
14034,
14034,
14034,
14030,
14030,
14030,
14030,
14030,
14030,
14030,
14030,
14030,
14030,
14030,
14030,
14030,
14030,
14030,
14030,
14030,
14030,
14030,
14030,
14030,
14030,
14030,
14030,
14030,
14030,
14030,
14030,
14030,
14030,
14030,
14030,
14030,
14030,
14030,
14030,
14030,
13729,
13729,
13729,
13721,
13721,
13721,
13720,
13720,
13676,
13676,
13676,
13536,
13536,
13521,
13521,
13521,
13521,
13382,
13382,
13382,
13382,
13382,
13382,
13382,
13382,
13382,
13382,
13382,
13382,
13382,
13382,
13382,
13382,
13382,
13382,
13382,
13382,
13382,
13382,
13382,
13382,
13382,
13382,
13382,
13382,
13382,
13382,
13382,
13382,
13382,
13382,
13382,
13382,
13382,
13382,
13382,
13382,
13382,
13382,
13382,
13382,
13382,
13360,
13360,
13360,
13360,
13360,
13360,
13360,
13360,
13360,
13360,
13236,
13236,
13236,
13236,
13236,
13236,
13236,
13236,
13236,
13236,
13236,
13236,
13236,
13149,
13149,
13149,
13007,
13007,
13007,
13007,
13007,
13007,
13007,
13007,
13007,
12881,
12881,
12881,
12791,
12791,
12791,
12791,
12791,
12791,
12791,
12791,
12735,
12735,
12735,
12735,
12735,
12735,
12735,
12735,
12735,
12735,
12735,
12735,
12735,
12689,
12689,
12689,
12689,
12689,
12689,
12689,
12689,
12688,
12688,
12688,
12688,
12688,
12688,
12688,
12688,
12688,
12688,
12688,
12688,
12688,
12688,
12688,
12688,
12688,
12688,
12688,
12688,
12688,
12688,
12688,
12688,
12688,
12688,
12688,
12688,
12688,
12688,
12688,
12688,
12688,
12688,
12688,
12688,
12688,
12688,
12688,
12688,
12688,
12688,
12688,
12534,
12534,
12534,
12534,
12534,
12427,
12427,
12427,
12427,
12427,
12427,
12427,
12427,
12427,
12427,
12427,
12427,
12427,
12427,
12427,
12427,
12427,
12427,
12427,
12427,
12427,
12427,
12427,
12427,
12427,
12427,
12427,
12427,
12427,
12427,
12427,
12427,
12427,
12427,
12427,
12427,
12427,
12427,
12427,
12427,
12427,
12427,
12427,
12427,
12427,
12427,
12427,
12427,
12427,
12427,
12427,
12427,
12427,
12427,
12427,
12427,
12427,
12427,
12427,
12427,
12427,
12427,
12427,
12427,
12427,
12427,
12427,
12427,
12427,
12427,
12427,
12427,
12427,
12427,
12427,
12427,
12427,
12427,
12427,
12427,
12427,
12427,
12427,
12397,
12397,
12397,
12397,
12397,
12397,
12397,
12397,
12397,
12397,
12397,
12397,
12397,
12397,
12397,
12397,
12397,
12397,
12397,
12397,
12397,
12397,
12397,
12397,
12397,
12397,
12397,
12397,
12397,
12397,
12397,
12397,
12397,
12397,
12397,
12397,
12397,
12397,
12397,
12397,
12397,
12397,
12397,
12397,
12397,
12397,
12397,
12397,
12397,
12397,
12397,
12397,
12376,
12376,
12376,
12376,
12376,
12376,
12279,
12279,
12279,
12279,
12279,
12279,
12279,
12279,
12279,
12279,
12279,
12279,
12279,
12279,
12279,
12279,
12279,
12279,
12279,
12279,
12279,
12279,
12279,
12279,
12279,
12279,
12279,
12279,
12279,
12279,
12279,
12279,
12279,
12279,
12279,
12279,
12279,
12279,
12279,
12279,
12279,
12279,
12279,
12279,
12219,
12219,
12000,
11940,
11940,
11940,
11940,
11940,
11940,
11940,
11940,
11940,
11940,
11940,
11940,
11940,
11940,
11940,
11940,
11940,
11940,
11940,
11940,
11940,
11940,
11940,
11940,
11940,
11940,
11940,
11940,
11940,
11940,
11940,
11940,
11940,
11940,
11940,
11940,
11940,
11940,
11940,
11940,
11940,
11940,
11940,
11940,
11940,
11940,
11940,
11940,
11940,
11940,
11940,
11940,
11940,
11940,
11940,
11940,
11940,
11940,
11940,
11940,
11940,
11940,
11940,
11940,
11940,
11880,
11880,
11880,
11880,
11880,
11880,
11880,
11880,
11880,
11840,
11840,
11840,
11840,
11840,
11840,
11840,
11840,
11840,
11840,
11840,
11840,
11840,
11840,
11840,
11840,
11840,
11840,
11840,
11840,
11840,
11840,
11840,
11840,
11840,
11840,
11840,
11840,
11840,
11840,
11840,
11840,
11840,
11840,
11840,
11840,
11840,
11840,
11840,
11840,
11840,
11840,
11840,
11840,
11840,
11840,
11840,
11840,
11840,
11840,
11840,
11840,
11840,
11840,
11840,
11840,
11840,
11840,
11769,
11769,
11769,
11769,
11769,
11769,
11769,
11769,
11769,
11769,
11769,
11769,
11769,
11769,
11769,
11769,
11769,
11769,
11769,
11769,
11769,
11769,
11769,
11769,
11769,
11769,
11769,
11769,
11769,
11769,
11769,
11769,
11769,
11769,
11769,
11769,
11769,
11769,
11769,
11769,
11769,
11769,
11769,
11769,
11769,
11720,
11720,
11720,
11720,
11720,
11720,
11720,
11720,
11720,
11720,
11720,
11720,
11720,
11720,
11720,
11720,
11720,
11720,
11720,
11720,
11720,
11720,
11720,
11720,
11720,
11720,
11720,
11720,
11720,
11720,
11720,
11720,
11720,
11720,
11720,
11666,
11666,
11642,
11642,
11642,
11642,
11642,
11642,
11642,
11642,
11642,
11642,
11642,
11642,
11642,
11642,
11642,
11642,
11642,
11625,
11625,
11625,
11625,
11625,
11625,
11625,
11625,
11625,
11625,
11625,
11625,
11625,
11625,
11625,
11625,
11625,
11625,
11625,
11625,
11625,
11625,
11625,
11625,
11625,
11625,
11625,
11625,
11625,
11625,
11625,
11625,
11625,
11625,
11625,
11625,
11625,
11625,
11625,
11625,
11625,
11625,
11625,
11625,
11625,
11625,
11625,
11625,
11625,
11625,
11625,
11625,
11625,
11625,
11625,
11625,
11625,
11625,
11625,
11625,
11625,
11625,
11625,
11587,
11587,
11587,
11587,
11587,
11587,
11587,
11587,
11587,
11587,
11587,
11587,
11587,
11587,
11587,
11587,
11587,
11587,
11587,
11587,
11587,
11545,
11545,
11545,
11545,
11545,
11545,
11545,
11545,
11545,
11545,
11545,
11545,
11545,
11545,
11545,
11545,
11545,
11545,
11545,
11545,
11545,
11545,
11545,
11545,
11545,
11545,
11545,
11545,
11545,
11545,
11545,
11545,
11545,
11545,
11545,
11545,
11545,
11545,
11545,
11545,
11545,
11545,
11545,
11545,
11545,
11545,
11415,
11415,
11415,
11415,
11415,
11415,
11415,
11415,
11415,
11415,
11415,
11415,
11415,
11415,
11415,
11415,
11415,
11415,
11415,
11415,
11415,
11415,
11415,
11415,
11415,
11415,
11415,
11415,
11415,
11415,
11415,
11415,
11415,
11415,
11415,
11415,
11415,
11415,
11415,
11415,
11415,
11415,
11415,
11415,
11415,
11415,
11415,
11415,
11415,
11415,
11415,
11415,
11415,
11415,
11415,
11415,
11415,
11415,
11415,
11415,
11415,
11415,
11415,
11415,
11415,
11415,
11415,
11415,
11415,
11415,
11407,
11407,
11407,
11139,
11139,
11139,
11139,
11139,
11139,
11139,
11139,
11139,
11139,
11139,
11139,
11139,
11139,
11139,
11139,
11139,
11139,
11139,
11139,
11139,
11139,
11139,
11139,
11139,
11139,
11139,
11139,
11139,
11139,
11139,
11139,
11139,
11139,
11139,
11139,
11139,
11139,
11139,
11139,
11139,
11139,
11139,
11139,
11139,
11139,
11139,
11139,
11139,
11139,
11139,
11139,
11139,
11139,
11139,
11139,
11139,
11139,
11139,
11139,
11139,
11139,
11139,
11139,
11139,
11139,
11139,
11139,
11139,
11139,
11139,
11139,
11139,
11139,
11139,
11139,
11139,
11139,
11139,
11118,
11118,
11118,
11118,
11118,
11118,
11118,
11118,
11118,
11118,
11118,
11118,
11118,
11118,
11118,
11118,
11118,
11118,
11118,
11118,
11118,
11118,
11118,
11118,
11118,
11118,
11118,
11118,
11118,
11118,
11118,
11118,
11118,
11118,
11118,
11118,
11118,
11118,
11118,
11118,
11118,
11118,
11118,
11118,
11118,
11118,
11118,
11118,
11118,
11118,
11118,
11118,
11118,
11118,
11118,
11118,
11118,
11118,
11118,
11118,
11118,
11118,
11118,
11118,
11118,
11118,
11118,
11118,
11118,
11118,
11118,
11118,
11118,
11118,
11118,
11118,
11118,
11118,
11118,
11118,
11118,
11118,
11118,
11118,
11118,
11118,
11118,
11118,
11118,
11118,
11118,
11118,
11118,
11118,
11118,
11118,
11118,
11118,
11118,
11118,
11118,
11118,
11118,
11118,
11118,
11118,
11118,
11118,
11118,
11118,
11118,
11118,
11118,
11118,
11118,
11118,
11118,
11118,
11118,
11118,
11118,
11118,
11118,
11118,
11118,
11118,
11118,
11118,
11118,
11118,
11118,
11118,
11118,
11118,
11118,
11118,
11118,
11118,
11118,
11118,
11118,
11118,
11118,
11118,
11118,
11118,
11118,
11118,
11118,
11118,
11118,
11118,
11118,
11118,
11118,
11118,
11118,
11118,
11118,
11118,
11118,
11118,
11118,
11118,
11118,
11118,
11118,
11118,
11118,
11118,
11118,
11118,
11118,
11118,
11118,
11118,
11118,
11118,
11118,
11118,
11118,
11118,
11118,
11118,
11118,
11118,
11118,
11118,
11118,
11118,
11118,
11118,
11118,
11118,
11118,
11118,
11118,
11118,
11118,
11118,
11118,
11118,
11118,
11118,
11118,
11118,
11118,
11118,
11118,
11118,
11118,
11118,
11118,
11118,
11118,
11083,
11083,
11073,
11073,
11073,
11073,
11073,
11073,
11073,
11073,
11073,
11073,
11073,
11073,
11073,
11073,
11073,
11073,
11073,
11073,
11073,
11073,
11073,
11073,
11073,
11073,
11073,
11073,
11073,
11073,
11073,
11073,
11073,
11073,
11073,
11073,
11073,
11073,
11073,
11073,
11073,
11073,
11073,
11073,
11073,
11073,
11073,
11073,
11073,
11073,
11073,
11073,
11073,
11073,
11073,
11073,
11073,
11073,
11073,
11073,
11073,
11045,
11045,
11045,
11045,
11045,
11045,
11045,
11045,
11045,
11045,
11045,
11045,
11045,
11045,
11045,
11045,
11045,
11045,
11045,
11045,
11045,
11045,
11045,
11045,
11045,
11045,
11045,
11045,
11045,
11045,
11045,
11045,
11045,
11045,
11045,
11045,
11045,
11045,
11045,
11045,
11045,
11045,
11045,
11045,
11045,
11045,
11045,
11045,
11045,
11045,
11045,
11045,
11045,
11045,
11045,
11045,
11045,
11045,
11045,
11045,
11045,
11045,
11045,
11045,
11045,
11045,
11045,
11045,
11035,
11035,
11035,
11035,
11035,
11035,
11035,
11035,
11035,
11035,
11035,
11035,
11035,
11035,
11035,
11035,
11035,
11035,
11035,
11035,
11035,
11035,
11035,
11035,
11035,
11035,
11035,
11035,
11035,
11035,
11035,
11035,
11035,
11035,
11035,
11035,
11035,
11035,
11035,
11035,
11035,
11035,
11035,
11035,
11035,
11035,
11035,
11035,
11035,
11035,
11035,
11035,
11035,
11035,
11035,
11035,
11035,
11035,
11035,
11035,
11035,
11035,
11035,
11035,
11035,
11035,
11035,
11035,
11035,
11035,
11035,
11035,
11035,
11035,
11035,
11035,
11035,
11035,
11035,
11035,
11035,
11035,
11035,
11035,
11035,
11035,
11035,
11035,
11035,
11035,
11035,
11035,
11035,
11035,
11035,
11035,
11035,
11035,
11035,
11035,
11035,
11035,
11035,
11035,
11035,
11035,
11035,
11035,
11035,
11035,
11035,
11035,
11035,
11035,
11035,
11035,
11035,
11035,
11035,
11035,
11035,
11035,
11035,
11035,
11035,
11035,
11035,
11035,
11035,
11035,
11035,
11035,
11035,
11035,
11035,
11035,
11035,
11035,
11035,
11035,
11035,
11035,
11035,
11035,
11035,
11035,
11035,
11035,
11035,
11035,
11035,
11035,
11035,
11035,
11035,
11035,
11035,
11035,
11035,
11035,
11035,
11035,
11035,
11035,
11035,
11035,
11035,
11035,
11035,
11035,
11035,
11035,
11035,
11035,
11035,
11035,
11035,
11035,
11035,
11035,
11035,
11035,
11035,
11035,
11035,
11035,
11035,
11035,
11035,
11035,
11035,
11035,
11035,
11035,
11035,
1,
